data/solutions/planning/wellformed/hard/weighting/wellformed_hard_instance46_gurobi.sol
Elapsed time: 1000.37
Nodes explored: 469132
Nodes left: 301184
Relative gap: 0.031
Upper bound: 5476415982.0
Lower bound: 5474709337
C[0]=167140.0
C[1]=167131.0
C[2]=167124.0
C[3]=167124.0
C[4]=167116.0
C[5]=167079.0
C[6]=167078.0
C[7]=167077.0
C[8]=167075.0
C[9]=167074.0
C[10]=167072.0
C[11]=167070.0
C[12]=167062.0
C[13]=167062.0
C[14]=166906.0
y[0]=11
y[1]=3
y[2]=1
y[3]=14
y[4]=6
y[5]=1
y[6]=1
y[7]=7
y[8]=11
y[9]=11
y[10]=5
y[11]=12
y[12]=11
y[13]=6
y[14]=5
y[15]=3
y[16]=3
y[17]=0
y[18]=9
y[19]=2
y[20]=1
y[21]=0
y[22]=1
y[23]=3
y[24]=13
y[25]=14
y[26]=3
y[27]=6
y[28]=1
y[29]=3
y[30]=9
y[31]=7
y[32]=12
y[33]=11
y[34]=9
y[35]=9
y[36]=10
y[37]=7
y[38]=10
y[39]=12
y[40]=6
y[41]=1
y[42]=1
y[43]=7
y[44]=13
y[45]=6
y[46]=4
y[47]=2
y[48]=1
y[49]=12
y[50]=1
y[51]=1
y[52]=2
y[53]=1
y[54]=1
y[55]=1
y[56]=14
y[57]=3
y[58]=13
y[59]=14
y[60]=2
y[61]=1
y[62]=10
y[63]=9
y[64]=8
y[65]=5
y[66]=12
y[67]=4
y[68]=1
y[69]=13
y[70]=1
y[71]=11
y[72]=5
y[73]=13
y[74]=6
y[75]=8
y[76]=0
y[77]=1
y[78]=9
y[79]=13
y[80]=14
y[81]=12
y[82]=1
y[83]=0
y[84]=1
y[85]=0
y[86]=8
y[87]=11
y[88]=12
y[89]=14
y[90]=7
y[91]=4
y[92]=8
y[93]=7
y[94]=12
y[95]=5
y[96]=12
y[97]=0
y[98]=12
y[99]=0
y[100]=2
y[101]=0
y[102]=7
y[103]=4
y[104]=2
y[105]=10
y[106]=8
y[107]=8
y[108]=11
y[109]=11
y[110]=7
y[111]=2
y[112]=0
y[113]=5
y[114]=5
y[115]=11
y[116]=6
y[117]=7
y[118]=11
y[119]=1
y[120]=9
y[121]=11
y[122]=5
y[123]=2
y[124]=9
y[125]=2
y[126]=11
y[127]=11
y[128]=6
y[129]=6
y[130]=7
y[131]=11
y[132]=8
y[133]=12
y[134]=6
y[135]=4
y[136]=12
y[137]=2
y[138]=14
y[139]=9
y[140]=9
y[141]=0
y[142]=8
y[143]=10
y[144]=14
y[145]=5
y[146]=0
y[147]=10
y[148]=9
y[149]=5
y[150]=3
y[151]=11
y[152]=10
y[153]=6
y[154]=2
y[155]=2
y[156]=10
y[157]=13
y[158]=8
y[159]=6
y[160]=7
y[161]=2
y[162]=7
y[163]=2
y[164]=1
y[165]=6
y[166]=4
y[167]=13
y[168]=14
y[169]=14
y[170]=12
y[171]=10
y[172]=0
y[173]=4
y[174]=14
y[175]=2
y[176]=10
y[177]=12
y[178]=13
y[179]=4
y[180]=13
y[181]=4
y[182]=8
y[183]=1
y[184]=10
y[185]=12
y[186]=12
y[187]=5
y[188]=2
y[189]=8
y[190]=8
y[191]=7
y[192]=12
y[193]=1
y[194]=14
y[195]=13
y[196]=12
y[197]=12
y[198]=11
y[199]=14
y[200]=13
y[201]=8
y[202]=6
y[203]=12
y[204]=0
y[205]=8
y[206]=13
y[207]=12
y[208]=14
y[209]=5
y[210]=3
y[211]=2
y[212]=1
y[213]=12
y[214]=4
y[215]=3
y[216]=10
y[217]=11
y[218]=4
y[219]=1
y[220]=2
y[221]=1
y[222]=6
y[223]=1
y[224]=13
y[225]=12
y[226]=6
y[227]=1
y[228]=14
y[229]=13
y[230]=0
y[231]=6
y[232]=13
y[233]=5
y[234]=0
y[235]=7
y[236]=1
y[237]=7
y[238]=9
y[239]=3
y[240]=4
y[241]=13
y[242]=11
y[243]=14
y[244]=14
y[245]=12
y[246]=6
y[247]=0
y[248]=9
y[249]=6
y[250]=13
y[251]=7
y[252]=4
y[253]=14
y[254]=14
y[255]=5
y[256]=11
y[257]=2
y[258]=4
y[259]=14
y[260]=7
y[261]=2
y[262]=5
y[263]=3
y[264]=8
y[265]=3
y[266]=8
y[267]=11
y[268]=5
y[269]=10
y[270]=10
y[271]=3
y[272]=10
y[273]=12
y[274]=7
y[275]=2
y[276]=6
y[277]=3
y[278]=10
y[279]=0
y[280]=4
y[281]=13
y[282]=7
y[283]=3
y[284]=5
y[285]=9
y[286]=3
y[287]=6
y[288]=7
y[289]=5
y[290]=1
y[291]=9
y[292]=12
y[293]=4
y[294]=5
y[295]=13
y[296]=3
y[297]=11
y[298]=7
y[299]=13
y[300]=7
y[301]=5
y[302]=9
y[303]=3
y[304]=3
y[305]=13
y[306]=9
y[307]=6
y[308]=13
y[309]=1
y[310]=13
y[311]=1
y[312]=8
y[313]=3
y[314]=4
y[315]=14
y[316]=14
y[317]=0
y[318]=12
y[319]=13
y[320]=10
y[321]=1
y[322]=6
y[323]=10
y[324]=4
y[325]=14
y[326]=4
y[327]=5
y[328]=3
y[329]=2
y[330]=2
y[331]=14
y[332]=7
y[333]=0
y[334]=4
y[335]=10
y[336]=13
y[337]=10
y[338]=9
y[339]=14
y[340]=0
y[341]=4
y[342]=14
y[343]=4
y[344]=4
y[345]=2
y[346]=6
y[347]=0
y[348]=11
y[349]=2
y[350]=6
y[351]=7
y[352]=2
y[353]=5
y[354]=3
y[355]=0
y[356]=13
y[357]=13
y[358]=9
y[359]=0
y[360]=7
y[361]=4
y[362]=8
y[363]=5
y[364]=11
y[365]=0
y[366]=2
y[367]=3
y[368]=1
y[369]=12
y[370]=8
y[371]=13
y[372]=1
y[373]=10
y[374]=8
y[375]=2
y[376]=2
y[377]=3
y[378]=4
y[379]=5
y[380]=14
y[381]=0
y[382]=14
y[383]=1
y[384]=3
y[385]=11
y[386]=5
y[387]=7
y[388]=1
y[389]=12
y[390]=12
y[391]=0
y[392]=9
y[393]=0
y[394]=2
y[395]=4
y[396]=10
y[397]=8
y[398]=1
y[399]=4
y[400]=10
y[401]=5
y[402]=12
y[403]=3
y[404]=8
y[405]=7
y[406]=2
y[407]=0
y[408]=2
y[409]=9
y[410]=2
y[411]=6
y[412]=3
y[413]=3
y[414]=9
y[415]=5
y[416]=6
y[417]=10
y[418]=6
y[419]=6
y[420]=7
y[421]=5
y[422]=4
y[423]=11
y[424]=7
y[425]=7
y[426]=14
y[427]=11
y[428]=13
y[429]=1
y[430]=4
y[431]=5
y[432]=0
y[433]=13
y[434]=6
y[435]=11
y[436]=9
y[437]=0
y[438]=3
y[439]=13
y[440]=7
y[441]=1
y[442]=11
y[443]=4
y[444]=10
y[445]=2
y[446]=5
y[447]=9
y[448]=12
y[449]=8
y[450]=10
y[451]=1
y[452]=8
y[453]=11
y[454]=12
y[455]=1
y[456]=1
y[457]=14
y[458]=1
y[459]=3
y[460]=9
y[461]=4
y[462]=5
y[463]=11
y[464]=12
y[465]=13
y[466]=4
y[467]=12
y[468]=4
y[469]=2
y[470]=6
y[471]=14
y[472]=5
y[473]=8
y[474]=8
y[475]=3
y[476]=8
y[477]=11
y[478]=8
y[479]=14
y[480]=1
y[481]=0
y[482]=8
y[483]=3
y[484]=7
y[485]=8
y[486]=8
y[487]=13
y[488]=5
y[489]=9
y[490]=6
y[491]=1
y[492]=5
y[493]=0
y[494]=4
y[495]=8
y[496]=0
y[497]=7
y[498]=1
y[499]=0
