data/solutions/planning/wellformed/hard/weighting/wellformed_hard_instance46_gurobi.log

Gurobi 6.5.2 (linux64) logging started Sun Mar  4 01:07:59 2018

Changed value of parameter LogFile to data/solutions/planning/wellformed/hard/weighting/wellformed_hard_instance46_gurobi.log
   Prev: gurobi.log  Default: 
Changed value of parameter Threads to 1
   Prev: 0  Min: 0  Max: 1024  Default: 0
Optimize a model with 530 rows, 7516 columns and 15044 nonzeros
Coefficient statistics:
  Matrix range    [1e+00, 1e+04]
  Objective range [1e+00, 2e+04]
  Bounds range    [1e+00, 1e+00]
  RHS range       [1e+00, 1e+00]
Presolve removed 3 rows and 3 columns
Presolve time: 0.02s
Presolved: 527 rows, 7513 columns, 15039 nonzeros
Variable types: 0 continuous, 7513 integer (7500 binary)
Found heuristic solution: objective 4.106142e+10

Root relaxation: objective 5.474689e+09, 760 iterations, 0.01 seconds

    Nodes    |    Current Node    |     Objective Bounds      |     Work
 Expl Unexpl |  Obj  Depth IntInf | Incumbent    BestBd   Gap | It/Node Time

     0     0 5.4747e+09    0   34 4.1061e+10 5.4747e+09  86.7%     -    0s
H    0     0                    6.607909e+09 5.4747e+09  17.1%     -    0s
     0     0 5.4747e+09    0   52 6.6079e+09 5.4747e+09  17.1%     -    0s
     0     0 5.4747e+09    0   46 6.6079e+09 5.4747e+09  17.1%     -    0s
     0     0 5.4747e+09    0   57 6.6079e+09 5.4747e+09  17.1%     -    0s
     0     0 5.4747e+09    0   55 6.6079e+09 5.4747e+09  17.1%     -    0s
H    0     0                    5.946816e+09 5.4747e+09  7.94%     -    0s
     0     2 5.4747e+09    0   43 5.9468e+09 5.4747e+09  7.94%     -    0s
H  163   163                    5.671253e+09 5.4747e+09  3.47%   2.8    0s
H  421   421                    5.668498e+09 5.4747e+09  3.42%   2.5    1s
H  743   743                    5.630421e+09 5.4747e+09  2.77%   2.2    1s
H 1138  1138                    5.629623e+09 5.4747e+09  2.75%   3.8    2s
H 1774  1774                    5.629592e+09 5.4747e+09  2.75%   9.4    4s
  2009  1999 5.4758e+09 1389   34 5.6296e+09 5.4747e+09  2.75%   9.5    5s
H 2041  1920                    5.624054e+09 5.4747e+09  2.66%  10.4    5s
H 2116  1875                    5.622663e+09 5.4747e+09  2.63%  10.3    6s
H 2420  1987                    5.622370e+09 5.4747e+09  2.63%  11.0    7s
H 2727  2106                    5.620458e+09 5.4747e+09  2.59%  11.0    8s
H 3142  2297                    5.620191e+09 5.4747e+09  2.59%  10.1    9s
  3277  2389 5.4748e+09  645   20 5.6202e+09 5.4747e+09  2.59%   9.8   10s
H 4654  3185                    5.619476e+09 5.4747e+09  2.58%   9.5   13s
  5313  3626 5.4748e+09  688   20 5.6195e+09 5.4747e+09  2.58%   9.1   15s
  7478  5347 5.4768e+09  871   21 5.6195e+09 5.4747e+09  2.58%   8.1   20s
H 8947  6713                    5.608729e+09 5.4747e+09  2.39%   7.5   22s
H 9063  6703                    5.593234e+09 5.4747e+09  2.12%   7.5   22s
  9893  7535 5.4747e+09  879   20 5.5932e+09 5.4747e+09  2.12%   8.1   25s
H10306  7934                    5.592809e+09 5.4747e+09  2.11%   8.3   27s
H10946  8548                    5.591365e+09 5.4747e+09  2.09%   8.1   28s
 11982  9548 5.4748e+09  617   19 5.5914e+09 5.4747e+09  2.09%   7.8   30s
H12991 10546                    5.590546e+09 5.4747e+09  2.07%   7.7   31s
H13065 10620                    5.590476e+09 5.4747e+09  2.07%   7.7   32s
H13610 11162                    5.590268e+09 5.4747e+09  2.07%   7.8   33s
 14915 12449 5.4748e+09 1200   20 5.5903e+09 5.4747e+09  2.07%   7.6   35s
H15445 12945                    5.590226e+09 5.4747e+09  2.07%   7.4   35s
H16519 14019                    5.590190e+09 5.4747e+09  2.07%   7.4   38s
 17352 14854 5.4749e+09  924   19 5.5902e+09 5.4747e+09  2.07%   7.6   40s
 19958 17388 5.4917e+09 1583   22 5.5902e+09 5.4747e+09  2.07%   7.5   45s
H20082 17510                    5.590134e+09 5.4747e+09  2.06%   7.5   45s
H20758 16982                    5.512418e+09 5.4747e+09  0.68%   7.6   47s
H20817 16899                    5.507217e+09 5.4747e+09  0.59%   7.6   47s
H20844 16924                    5.507041e+09 5.4747e+09  0.59%   7.6   47s
 22258 18311 5.4751e+09 1054   23 5.5070e+09 5.4747e+09  0.59%   7.3   50s
 23920 19950 5.4784e+09  539   20 5.5070e+09 5.4747e+09  0.59%   7.6   55s
 25810 21808 5.4763e+09 1978   23 5.5070e+09 5.4747e+09  0.59%   7.7   60s
H25941 21921                    5.506496e+09 5.4747e+09  0.58%   7.7   60s
H26130 22106                    5.506349e+09 5.4747e+09  0.57%   7.8   61s
 27506 23462 5.4748e+09  616   21 5.5063e+09 5.4747e+09  0.57%   7.8   65s
 29172 25128 5.4748e+09 1118   22 5.5063e+09 5.4747e+09  0.57%   7.8   70s
H29507 25433                    5.505722e+09 5.4747e+09  0.56%   7.8   71s
 30611 26483 5.4748e+09  885   22 5.5057e+09 5.4747e+09  0.56%   7.6   75s
 31969 27841 5.4748e+09 2243   24 5.5057e+09 5.4747e+09  0.56%   7.8   80s
 33562 29382 5.4818e+09  340   22 5.5057e+09 5.4747e+09  0.56%   7.8   85s
 34983 30803 5.4818e+09  586   20 5.5057e+09 5.4747e+09  0.56%   8.0   90s
 36789 32581 5.4818e+09  850   19 5.5057e+09 5.4747e+09  0.56%   8.1   95s
H38701 34293                    5.505722e+09 5.4747e+09  0.56%   7.9   99s
 38883 34477 5.4751e+09 1132   23 5.5057e+09 5.4747e+09  0.56%   7.9  100s
H39979 35569                    5.505618e+09 5.4747e+09  0.56%   8.1  103s
H40366 35952                    5.505500e+09 5.4747e+09  0.56%   8.1  104s
 40808 36376 5.4747e+09  285   23 5.5055e+09 5.4747e+09  0.56%   8.0  105s
 42937 38505 5.4749e+09 2414   24 5.5055e+09 5.4747e+09  0.56%   8.1  110s
 45040 40571 5.4750e+09 1841   24 5.5055e+09 5.4747e+09  0.56%   8.0  115s
 47147 42648 5.4765e+09 1417   22 5.5055e+09 5.4747e+09  0.56%   8.1  120s
H48425 43893                    5.505480e+09 5.4747e+09  0.56%   8.2  123s
 48857 44327 5.4747e+09  472   24 5.5055e+09 5.4747e+09  0.56%   8.2  125s
H50008 45476                    5.505480e+09 5.4747e+09  0.56%   8.1  126s
H50191 45659                    5.505479e+09 5.4747e+09  0.56%   8.1  126s
 52123 46973 5.4762e+09  546   23 5.5055e+09 5.4747e+09  0.56%   8.0  130s
 55502 50313 5.4752e+09 2401   24 5.5055e+09 5.4747e+09  0.56%   8.0  135s
H58237 53004                    5.505457e+09 5.4747e+09  0.56%   8.0  139s
H58536 53241                    5.503622e+09 5.4747e+09  0.53%   8.0  139s
 58895 53554 5.4747e+09  282   24 5.5036e+09 5.4747e+09  0.53%   8.0  140s
H60043 42864                    5.476428e+09 5.4747e+09  0.03%   7.9  141s
 61943 44696 infeasible 1405      5.4764e+09 5.4747e+09  0.03%   7.9  145s
 64692 47348 5.4751e+09 2620   20 5.4764e+09 5.4747e+09  0.03%   8.0  150s
 66882 49475 5.4757e+09 2050   23 5.4764e+09 5.4747e+09  0.03%   8.0  155s
 69057 50964 5.4751e+09  370   24 5.4764e+09 5.4747e+09  0.03%   8.0  160s
 71076 52983 5.4752e+09  719   22 5.4764e+09 5.4747e+09  0.03%   8.0  165s
 72414 54321 5.4752e+09  907   22 5.4764e+09 5.4747e+09  0.03%   8.0  170s
 74139 55992 5.4762e+09 1159   16 5.4764e+09 5.4747e+09  0.03%   8.0  175s
 76120 57839 5.4750e+09 1450   23 5.4764e+09 5.4747e+09  0.03%   8.0  180s
 77532 59104 5.4747e+09   63   23 5.4764e+09 5.4747e+09  0.03%   8.0  185s
 80060 61502 5.4763e+09 2568   17 5.4764e+09 5.4747e+09  0.03%   8.0  190s
 82222 63634 5.4752e+09 2168   21 5.4764e+09 5.4747e+09  0.03%   8.0  195s
 84582 65894 5.4749e+09  972   21 5.4764e+09 5.4747e+09  0.03%   7.9  200s
 86126 67372 5.4747e+09  127   27 5.4764e+09 5.4747e+09  0.03%   8.0  205s
 88688 69904 5.4747e+09  831   21 5.4764e+09 5.4747e+09  0.03%   7.9  210s
 90238 71450 5.4747e+09 1172   21 5.4764e+09 5.4747e+09  0.03%   7.9  215s
 92008 73126 5.4747e+09 1294   21 5.4764e+09 5.4747e+09  0.03%   7.9  220s
 93718 74792 5.4748e+09  600   23 5.4764e+09 5.4747e+09  0.03%   7.9  225s
 96759 77765 5.4748e+09  746   22 5.4764e+09 5.4747e+09  0.03%   7.8  230s
 98980 79494 5.4747e+09  267   25 5.4764e+09 5.4747e+09  0.03%   7.9  235s
 101365 81304 5.4748e+09  305   19 5.4764e+09 5.4747e+09  0.03%   7.8  240s
 103448 83387 5.4748e+09  694   22 5.4764e+09 5.4747e+09  0.03%   7.8  245s
 105626 85427 5.4748e+09  993   21 5.4764e+09 5.4747e+09  0.03%   7.8  250s
 107568 87236 5.4752e+09 1745   24 5.4764e+09 5.4747e+09  0.03%   7.8  255s
 109575 89215 5.4751e+09 1298   23 5.4764e+09 5.4747e+09  0.03%   7.8  260s
 111174 90697 5.4747e+09  324   25 5.4764e+09 5.4747e+09  0.03%   7.9  265s
 113464 92968 5.4747e+09  345   26 5.4764e+09 5.4747e+09  0.03%   7.9  270s
 115930 95411 5.4747e+09  899   22 5.4764e+09 5.4747e+09  0.03%   7.8  275s
 118571 97998 5.4752e+09 1719   24 5.4764e+09 5.4747e+09  0.03%   7.8  280s
 120830 100229 5.4757e+09 1547   23 5.4764e+09 5.4747e+09  0.03%   7.8  285s
 122556 101851 5.4749e+09  547   23 5.4764e+09 5.4747e+09  0.03%   7.8  290s
 124638 103909 5.4747e+09  189   29 5.4764e+09 5.4747e+09  0.03%   7.8  295s
 127074 106315 5.4747e+09  170   25 5.4764e+09 5.4747e+09  0.03%   7.8  300s
H128172 107408                    5.476416e+09 5.4747e+09  0.03%   7.8  302s
 129508 108717 5.4747e+09  116   27 5.4764e+09 5.4747e+09  0.03%   7.7  305s
 131551 110758 5.4752e+09 2159   24 5.4764e+09 5.4747e+09  0.03%   7.7  310s
 133755 112925 5.4751e+09 1872   23 5.4764e+09 5.4747e+09  0.03%   7.7  315s
 135219 114284 5.4758e+09  289   24 5.4764e+09 5.4747e+09  0.03%   7.8  320s
 136722 115787 5.4758e+09  584   21 5.4764e+09 5.4747e+09  0.03%   7.8  325s
 138690 117602 5.4747e+09  367   27 5.4764e+09 5.4747e+09  0.03%   7.9  330s
 140550 119461 5.4753e+09 2227   24 5.4764e+09 5.4747e+09  0.03%   7.9  335s
 143058 121919 5.4761e+09 2253   23 5.4764e+09 5.4747e+09  0.03%   7.9  340s
 144929 123756 5.4747e+09  949   22 5.4764e+09 5.4747e+09  0.03%   7.9  345s
 147134 125911 5.4747e+09  342   26 5.4764e+09 5.4747e+09  0.03%   7.8  350s
 149308 127801 5.4747e+09  185   25 5.4764e+09 5.4747e+09  0.03%   7.8  355s
 151932 130046 5.4748e+09 1254   23 5.4764e+09 5.4747e+09  0.03%   7.8  360s
 154008 132063 5.4749e+09  995   21 5.4764e+09 5.4747e+09  0.03%   7.8  365s
 155641 133664 5.4747e+09  248   26 5.4764e+09 5.4747e+09  0.03%   7.8  370s
 157753 135740 5.4752e+09 2341   17 5.4764e+09 5.4747e+09  0.03%   7.8  375s
 159520 137441 5.4748e+09 1551   24 5.4764e+09 5.4747e+09  0.03%   7.8  380s
 161340 139217 5.4747e+09  235   23 5.4764e+09 5.4747e+09  0.03%   7.8  385s
 164559 142343 5.4747e+09   78   24 5.4764e+09 5.4747e+09  0.03%   7.8  390s
 167418 144352 5.4764e+09  775   22 5.4764e+09 5.4747e+09  0.03%   7.7  395s
 169925 146821 5.4764e+09 1129   20 5.4764e+09 5.4747e+09  0.03%   7.7  400s
 172289 149109 5.4750e+09  910   20 5.4764e+09 5.4747e+09  0.03%   7.7  405s
 175311 152075 5.4747e+09  571   24 5.4764e+09 5.4747e+09  0.03%   7.7  410s
 177756 154493 5.4750e+09 2158   23 5.4764e+09 5.4747e+09  0.03%   7.7  415s
 179545 156222 5.4749e+09 1430   24 5.4764e+09 5.4747e+09  0.03%   7.7  420s
 182201 158850 5.4750e+09 1856   24 5.4764e+09 5.4747e+09  0.03%   7.6  425s
 185477 162030 5.4747e+09  170   30 5.4764e+09 5.4747e+09  0.03%   7.6  430s
 187557 164067 5.4747e+09   46   29 5.4764e+09 5.4747e+09  0.03%   7.6  435s
 189797 165715 5.4758e+09 1183   18 5.4764e+09 5.4747e+09  0.03%   7.6  440s
 191768 167638 5.4748e+09  916   20 5.4764e+09 5.4747e+09  0.03%   7.5  445s
 193707 169386 5.4756e+09  107   21 5.4764e+09 5.4747e+09  0.03%   7.6  450s
 195355 171034 5.4756e+09  466   23 5.4764e+09 5.4747e+09  0.03%   7.6  455s
 197153 172824 5.4756e+09  739   22 5.4764e+09 5.4747e+09  0.03%   7.6  460s
 199668 175094 5.4750e+09  520   23 5.4764e+09 5.4747e+09  0.03%   7.6  465s
 201462 176887 5.4750e+09 2314   23 5.4764e+09 5.4747e+09  0.03%   7.6  470s
 203543 178913 5.4756e+09 2035   23 5.4764e+09 5.4747e+09  0.03%   7.6  475s
 205208 180521 5.4752e+09 1312   22 5.4764e+09 5.4747e+09  0.03%   7.6  480s
 206428 181667 infeasible 2472      5.4764e+09 5.4747e+09  0.03%   7.7  485s
 207913 183140 5.4752e+09 1491   24 5.4764e+09 5.4747e+09  0.03%   7.6  490s
 209222 184316 5.4747e+09  294   23 5.4764e+09 5.4747e+09  0.03%   7.7  495s
 211333 186425 5.4761e+09 2405   22 5.4764e+09 5.4747e+09  0.03%   7.7  500s
 213735 188792 5.4750e+09 2214   24 5.4764e+09 5.4747e+09  0.03%   7.6  505s
 215368 190387 5.4750e+09 1536   23 5.4764e+09 5.4747e+09  0.03%   7.6  510s
 217646 192516 5.4751e+09 1199   21 5.4764e+09 5.4747e+09  0.03%   7.7  515s
 220647 195498 5.4747e+09  818   22 5.4764e+09 5.4747e+09  0.03%   7.7  520s
 223834 198477 infeasible 1467      5.4764e+09 5.4747e+09  0.03%   7.7  525s
 226497 200178 5.4747e+09 1426   19 5.4764e+09 5.4747e+09  0.03%   7.6  530s
 228766 201658 5.4747e+09 1438   22 5.4764e+09 5.4747e+09  0.03%   7.6  535s
 232402 204341 5.4761e+09 1391   20 5.4764e+09 5.4747e+09  0.03%   7.6  540s
 235867 207086 5.4757e+09 1340   22 5.4764e+09 5.4747e+09  0.03%   7.6  545s
 238963 209592 5.4762e+09 1561   20 5.4764e+09 5.4747e+09  0.03%   7.5  550s
 242941 212815 infeasible 1540      5.4764e+09 5.4747e+09  0.03%   7.5  555s
 246661 216272 5.4747e+09 1390   23 5.4764e+09 5.4747e+09  0.03%   7.5  560s
 250465 219459 5.4747e+09 1299   21 5.4764e+09 5.4747e+09  0.03%   7.5  565s
 254152 222617 5.4756e+09 1401   16 5.4764e+09 5.4747e+09  0.03%   7.5  570s
 258095 226174 5.4764e+09 1466   19 5.4764e+09 5.4747e+09  0.03%   7.5  575s
 261950 229330 5.4747e+09 1393   24 5.4764e+09 5.4747e+09  0.03%   7.5  580s
 265780 232765 5.4747e+09 1308   22 5.4764e+09 5.4747e+09  0.03%   7.4  585s
 269709 236094 5.4747e+09 1358   21 5.4764e+09 5.4747e+09  0.03%   7.4  590s
 273520 239499 5.4758e+09 1627   19 5.4764e+09 5.4747e+09  0.03%   7.4  595s
 277636 243160 5.4747e+09 1548   21 5.4764e+09 5.4747e+09  0.03%   7.4  600s
 281223 246049 5.4747e+09 1489   21 5.4764e+09 5.4747e+09  0.03%   7.4  605s
 285185 249683 5.4752e+09 1498   21 5.4764e+09 5.4747e+09  0.03%   7.4  610s
 289437 253478 5.4747e+09 1339   22 5.4764e+09 5.4747e+09  0.03%   7.4  615s
 293378 256950 5.4747e+09 1361   21 5.4764e+09 5.4747e+09  0.03%   7.4  620s
 297325 260526 5.4747e+09 1430   22 5.4764e+09 5.4747e+09  0.03%   7.3  625s
 301574 264212 5.4747e+09 1343   21 5.4764e+09 5.4747e+09  0.03%   7.3  630s
 304569 266397 5.4747e+09 1380   22 5.4764e+09 5.4747e+09  0.03%   7.3  635s
 308725 269683 5.4750e+09 1524   19 5.4764e+09 5.4747e+09  0.03%   7.3  640s
 312768 273274 5.4750e+09 1527   15 5.4764e+09 5.4747e+09  0.03%   7.3  645s
 316724 276451 5.4752e+09 1540   14 5.4764e+09 5.4747e+09  0.03%   7.2  650s
 320036 279061 5.4747e+09 1406   18 5.4764e+09 5.4747e+09  0.03%   7.2  655s
 323717 281975 5.4751e+09 1464   18 5.4764e+09 5.4747e+09  0.03%   7.2  660s
 327375 284692 5.4747e+09 1521   18 5.4764e+09 5.4747e+09  0.03%   7.2  665s
 330798 287327 5.4751e+09 1400   21 5.4764e+09 5.4747e+09  0.03%   7.1  670s
 334053 289492 5.4747e+09 1436   23 5.4764e+09 5.4747e+09  0.03%   7.1  675s
 337514 291772 5.4747e+09 1433   18 5.4764e+09 5.4747e+09  0.03%   7.1  680s
 340461 293422 5.4752e+09 1545   19 5.4764e+09 5.4747e+09  0.03%   7.1  685s
 343380 294988 5.4747e+09 1491   16 5.4764e+09 5.4747e+09  0.03%   7.1  690s
 346213 296168 5.4747e+09 1515   14 5.4764e+09 5.4747e+09  0.03%   7.1  695s
 348021 296277 infeasible 1521      5.4764e+09 5.4747e+09  0.03%   7.0  700s
 348985 295883 5.4747e+09 1514   16 5.4764e+09 5.4747e+09  0.03%   7.0  705s
 350073 295980 5.4747e+09 1509   15 5.4764e+09 5.4747e+09  0.03%   7.0  710s
 352130 296317 infeasible 1515      5.4764e+09 5.4747e+09  0.03%   7.0  715s
 355004 297144 5.4751e+09 1496   21 5.4764e+09 5.4747e+09  0.03%   7.0  720s
 356919 297543 infeasible 1539      5.4764e+09 5.4747e+09  0.03%   7.0  725s
 358681 297697 5.4747e+09 1511   13 5.4764e+09 5.4747e+09  0.03%   7.0  730s
 361331 297830 infeasible 1521      5.4764e+09 5.4747e+09  0.03%   7.0  735s
 363821 297911 infeasible 1514      5.4764e+09 5.4747e+09  0.03%   7.0  740s
 365745 297855 5.4754e+09 1523   15 5.4764e+09 5.4747e+09  0.03%   7.0  745s
 367746 297894 5.4747e+09 1512   15 5.4764e+09 5.4747e+09  0.03%   7.0  750s
 370190 297907 infeasible 1501      5.4764e+09 5.4747e+09  0.03%   7.0  755s
 372273 298037 infeasible 1520      5.4764e+09 5.4747e+09  0.03%   7.0  760s
 374905 298153 5.4754e+09 1529   14 5.4764e+09 5.4747e+09  0.03%   7.0  765s
 376545 298307 infeasible 1539      5.4764e+09 5.4747e+09  0.03%   7.0  770s
 378846 298496 5.4751e+09 1517   14 5.4764e+09 5.4747e+09  0.03%   7.0  775s
 380285 298561 infeasible 1546      5.4764e+09 5.4747e+09  0.03%   7.0  780s
 382156 298671 infeasible 1533      5.4764e+09 5.4747e+09  0.03%   7.0  785s
 383736 298621 infeasible 1516      5.4764e+09 5.4747e+09  0.03%   7.0  790s
 385350 298690 infeasible 1509      5.4764e+09 5.4747e+09  0.03%   7.0  795s
 387023 298650 infeasible 1508      5.4764e+09 5.4747e+09  0.03%   7.0  800s
 389159 298820 infeasible 1535      5.4764e+09 5.4747e+09  0.03%   7.0  805s
 391444 298826 5.4747e+09 1534   16 5.4764e+09 5.4747e+09  0.03%   7.0  810s
 394069 298906 infeasible 1512      5.4764e+09 5.4747e+09  0.03%   7.0  815s
 396458 299003 5.4747e+09 1535   16 5.4764e+09 5.4747e+09  0.03%   7.0  820s
 398168 298985 infeasible 1525      5.4764e+09 5.4747e+09  0.03%   7.0  825s
 400106 298947 infeasible 1510      5.4764e+09 5.4747e+09  0.03%   7.0  830s
 402276 299067 5.4747e+09 1522   16 5.4764e+09 5.4747e+09  0.03%   7.0  835s
 403741 299161 5.4750e+09 1526   29 5.4764e+09 5.4747e+09  0.03%   7.0  840s
 405207 299222 infeasible 1525      5.4764e+09 5.4747e+09  0.03%   7.0  845s
 407057 299207 infeasible 1519      5.4764e+09 5.4747e+09  0.03%   7.0  850s
 409018 299338 infeasible 1530      5.4764e+09 5.4747e+09  0.03%   7.0  855s
 410795 299353 5.4747e+09 1511   15 5.4764e+09 5.4747e+09  0.03%   7.0  860s
 412638 299405 infeasible 1534      5.4764e+09 5.4747e+09  0.03%   7.0  865s
 414082 299417 5.4753e+09 1514   15 5.4764e+09 5.4747e+09  0.03%   7.0  870s
 415653 299462 infeasible 1521      5.4764e+09 5.4747e+09  0.03%   7.1  875s
 417610 299592 infeasible 1527      5.4764e+09 5.4747e+09  0.03%   7.1  880s
 419649 299606 infeasible 1525      5.4764e+09 5.4747e+09  0.03%   7.1  885s
 421853 299649 5.4747e+09 1524   15 5.4764e+09 5.4747e+09  0.03%   7.1  890s
 423756 299613 5.4747e+09 1525   16 5.4764e+09 5.4747e+09  0.03%   7.1  895s
 425399 299586 5.4747e+09 1512   14 5.4764e+09 5.4747e+09  0.03%   7.1  900s
 426992 299679 5.4751e+09 1527   17 5.4764e+09 5.4747e+09  0.03%   7.1  905s
 428626 299693 5.4747e+09 1524   15 5.4764e+09 5.4747e+09  0.03%   7.1  910s
 430140 299735 infeasible 1534      5.4764e+09 5.4747e+09  0.03%   7.1  915s
 431754 299801 5.4747e+09 1520   16 5.4764e+09 5.4747e+09  0.03%   7.1  920s
 433762 299759 infeasible 1520      5.4764e+09 5.4747e+09  0.03%   7.1  925s
 435697 299773 infeasible 1523      5.4764e+09 5.4747e+09  0.03%   7.1  930s
 437452 299806 5.4747e+09 1533   16 5.4764e+09 5.4747e+09  0.03%   7.1  935s
 439411 299848 5.4747e+09 1530   16 5.4764e+09 5.4747e+09  0.03%   7.1  940s
 441342 299832 5.4747e+09 1528   16 5.4764e+09 5.4747e+09  0.03%   7.1  945s
 442975 299797 5.4747e+09 1511   13 5.4764e+09 5.4747e+09  0.03%   7.1  950s
 444571 299836 5.4747e+09 1523   14 5.4764e+09 5.4747e+09  0.03%   7.2  955s
 446485 299809 infeasible 1519      5.4764e+09 5.4747e+09  0.03%   7.2  960s
 448372 299923 5.4751e+09 1531   16 5.4764e+09 5.4747e+09  0.03%   7.2  965s
 450897 299947 5.4747e+09 1523   16 5.4764e+09 5.4747e+09  0.03%   7.2  970s
 452952 300088 infeasible 1515      5.4764e+09 5.4747e+09  0.03%   7.2  975s
 455318 300309 5.4747e+09 1508   17 5.4764e+09 5.4747e+09  0.03%   7.2  980s
 458933 300737 5.4747e+09 1523   17 5.4764e+09 5.4747e+09  0.03%   7.2  985s
 462196 300985 5.4747e+09 1516   16 5.4764e+09 5.4747e+09  0.03%   7.2  990s
 465043 301074     cutoff 1518      5.4764e+09 5.4747e+09  0.03%   7.2  995s
 469132 301184 5.4747e+09 1512   15 5.4764e+09 5.4747e+09  0.03%   7.2 1000s

Cutting planes:
  Gomory: 3
  Cover: 2
  MIR: 3
  Flow cover: 3
  GUB cover: 1

Explored 469133 nodes (3372789 simplex iterations) in 1000.01 seconds
Thread count was 1 (of 8 available processors)

Time limit reached
Best objective 5.476415982000e+09, best bound 5.474709337000e+09, gap 0.0312%
